width = 18;

n_circuits = 16;

circuit_x = array1d(1..16, [3, 3, 3, 3, 3, 3, 3, 3, 4, 4, 4, 4, 5, 5, 5, 5]);

circuit_y = array1d(1..16, [3, 4, 5, 6, 7, 8, 10, 11, 3, 4, 5, 6, 3, 4, 5, 6]);

opt_height = 18;

max_y = 11;

